Route #1: 33 17 36 8 25 12 26
Route #2: 55 13 56 51 19 41 38 18 46
Route #3: 50 32 20 47 43 21 45 24
Route #4: 22 42 16 44 15 6 10 3 5
Route #5: 37 7 39 14 52 2 30 1
Route #6: 54 35 29 40 4 28 53 9 34
Route #7: 23 27 49 48 31 11
cost 1532.1278076171875